% Número total de personas
n = 20;

% Número de opiniones posibles
m = 5;

% Distribución inicial de personas por opinión
p = [1, 6, 4, 7, 2];

% Valores de las opiniones
v = [0.219, 0.368, 0.369, 0.763, 0.814];

% Costos extras al mover a opiniones vacías
ce = [5.200, 1.399, 4.356, 10.025, 10.886];

% Matriz de costos de mover de una opinión a otra
c = array2d(1..5, 1..5,
  [
    0.000,    1.913,    0.004,    1.082,    3.791,
    2.012,    0.000,    2.772,    1.662,    4.142,
    4.869,    3.602,    0.000,    3.571,    2.901,
    2.477,    1.367,    4.734,    0.000,    0.260,
    1.278,    0.608,    4.034,    0.126,    0.000
  ]);

% Costo total máximo permitido
ct = 22.300;

% Número máximo de movimientos permitidos
maxM = 26;
